#
# NaCl at 3.5 mol/kg target  (same file serves HP and FBP)
# box 4.8 x 4.8 x 28.8 nm | 22178 waters | 236 ion pairs
# generated by build_salt_data.py from salt_data_48x48x288_clone.py -- do not hand-edit
#
tolerance 2.0
filetype pdb
seed 1002
output nacl_35m_dr2.pdb

structure ../water.pdb
  number 3696
  inside box 0.5 0.5 0.5 47.5 47.5 48.0
end structure
structure ../water.pdb
  number 3696
  inside box 0.5 0.5 48.0 47.5 47.5 96.0
end structure
structure ../water.pdb
  number 3696
  inside box 0.5 0.5 96.0 47.5 47.5 144.0
end structure
structure ../water.pdb
  number 3696
  inside box 0.5 0.5 144.0 47.5 47.5 192.0
end structure
structure ../water.pdb
  number 3696
  inside box 0.5 0.5 192.0 47.5 47.5 240.0
end structure
structure ../water.pdb
  number 3698
  inside box 0.5 0.5 240.0 47.5 47.5 287.5
end structure

structure ../na.pdb
  number 236
  inside box 0.5 0.5 107.6 47.5 47.5 180.4
end structure

structure ../cl.pdb
  number 236
  inside box 0.5 0.5 107.6 47.5 47.5 180.4
end structure
